    1C
    1U    Default_model_for_CalculiX_Advanced_Environment               
    1UUSER                                                              
    1UDATE              28.april.2021                                   
    1UTIME              23:05:47                                        
    1UHOST                                                              
    1UPGM               CalculiX                                        
    1UVERSION           Version 2.17                             
    1UCOMPILETIME       Thu Jul 23 21:29:36 CEST 2020                    
    1UDIR                                                               
    1UDBN                                                               
    1UMAT    1STEEL_08CR18NI10TI                                        
    2C                           116                                     1
 -1         1-3.00000E+00-1.00000E+00 0.00000E+00
 -1         2-3.00000E+00-1.00000E+00-1.00000E+00
 -1         3-3.00000E+00-1.00000E+00 1.00000E+00
 -1         4-3.00000E+00 0.00000E+00-1.00000E+00
 -1         5-3.00000E+00 0.00000E+00 1.00000E+00
 -1         6-3.00000E+00 1.00000E+00-1.00000E+00
 -1         7-3.00000E+00 1.00000E+00 0.00000E+00
 -1         8-3.00000E+00 1.00000E+00 1.00000E+00
 -1         9-2.00000E+00-1.00000E+00-2.00000E+00
 -1        10-2.00000E+00-2.00000E+00-1.00000E+00
 -1        11-2.00000E+00-1.00000E+00 1.00000E+00
 -1        12-2.00000E+00-2.00000E+00 1.00000E+00
 -1        13-1.00000E+00-1.00000E+00-3.00000E+00
 -1        14-2.00000E+00-1.00000E+00-1.00000E+00
 -1        15-2.00000E+00-1.00000E+00 2.00000E+00
 -1        16-2.00000E+00 1.00000E+00-2.00000E+00
 -1        17-2.00000E+00 1.00000E+00-1.00000E+00
 -1        18-2.00000E+00 1.00000E+00 1.00000E+00
 -1        19-2.00000E+00 1.00000E+00 2.00000E+00
 -1        20-1.00000E+00 1.00000E+00 3.00000E+00
 -1        21-2.00000E+00 2.00000E+00-1.00000E+00
 -1        22-2.00000E+00 2.00000E+00 1.00000E+00
 -1        23-1.00000E+00-3.00000E+00-1.00000E+00
 -1        24-1.00000E+00-3.00000E+00 0.00000E+00
 -1        25-1.00000E+00-3.00000E+00 1.00000E+00
 -1        26-1.00000E+00-1.00000E+00-2.00000E+00
 -1        27-1.00000E+00-2.00000E+00-2.00000E+00
 -1        28-1.00000E+00-2.00000E+00-1.00000E+00
 -1        29-1.00000E+00-2.00000E+00 1.00000E+00
 -1        30-1.00000E+00-2.00000E+00 2.00000E+00
 -1        31-1.00000E+00 0.00000E+00-3.00000E+00
 -1        32 0.00000E+00-1.00000E+00-3.00000E+00
 -1        33-1.00000E+00-1.00000E+00-1.00000E+00
 -1        34-1.00000E+00-1.00000E+00 0.00000E+00
 -1        35-1.00000E+00 0.00000E+00-1.00000E+00
 -1        36-1.00000E+00-1.00000E+00 1.00000E+00
 -1        37-1.00000E+00 0.00000E+00 1.00000E+00
 -1        38-1.00000E+00-1.00000E+00 2.00000E+00
 -1        39-1.00000E+00-1.00000E+00 3.00000E+00
 -1        40-1.00000E+00 1.00000E+00-3.00000E+00
 -1        41-1.00000E+00 1.00000E+00-2.00000E+00
 -1        42-1.00000E+00 1.00000E+00-1.00000E+00
 -1        43-1.00000E+00 1.00000E+00 0.00000E+00
 -1        44-1.00000E+00 1.00000E+00 1.00000E+00
 -1        45-1.00000E+00 0.00000E+00 3.00000E+00
 -1        46-1.00000E+00 1.00000E+00 2.00000E+00
 -1        47 0.00000E+00 1.00000E+00 3.00000E+00
 -1        48-1.00000E+00 2.00000E+00-1.00000E+00
 -1        49-1.00000E+00 3.00000E+00-1.00000E+00
 -1        50-1.00000E+00 2.00000E+00-2.00000E+00
 -1        51-1.00000E+00 3.00000E+00 0.00000E+00
 -1        52-1.00000E+00 2.00000E+00 1.00000E+00
 -1        53-1.00000E+00 3.00000E+00 1.00000E+00
 -1        54-1.00000E+00 2.00000E+00 2.00000E+00
 -1        55 0.00000E+00-3.00000E+00-1.00000E+00
 -1        56 1.00000E+00-3.00000E+00-1.00000E+00
 -1        57 0.00000E+00-3.00000E+00 1.00000E+00
 -1        58 1.00000E+00-2.00000E+00-2.00000E+00
 -1        59 1.00000E+00-2.00000E+00-1.00000E+00
 -1        60 1.00000E+00-1.00000E+00-3.00000E+00
 -1        61 1.00000E+00-1.00000E+00-2.00000E+00
 -1        62 0.00000E+00-1.00000E+00-1.00000E+00
 -1        63 1.00000E+00-1.00000E+00-1.00000E+00
 -1        64 0.00000E+00-1.00000E+00 1.00000E+00
 -1        65 0.00000E+00-1.00000E+00 3.00000E+00
 -1        66 0.00000E+00 1.00000E+00-3.00000E+00
 -1        67 0.00000E+00 1.00000E+00-1.00000E+00
 -1        68 0.00000E+00 1.00000E+00 1.00000E+00
 -1        69 1.00000E+00 1.00000E+00 1.00000E+00
 -1        70 1.00000E+00 1.00000E+00 2.00000E+00
 -1        71 1.00000E+00 1.00000E+00 3.00000E+00
 -1        72 0.00000E+00 3.00000E+00-1.00000E+00
 -1        73 0.00000E+00 3.00000E+00 1.00000E+00
 -1        74 1.00000E+00 3.00000E+00 1.00000E+00
 -1        75 1.00000E+00 2.00000E+00 1.00000E+00
 -1        76 1.00000E+00 2.00000E+00 2.00000E+00
 -1        77 1.00000E+00-3.00000E+00 0.00000E+00
 -1        78 1.00000E+00-3.00000E+00 1.00000E+00
 -1        79 2.00000E+00-2.00000E+00-1.00000E+00
 -1        80 1.00000E+00-2.00000E+00 1.00000E+00
 -1        81 1.00000E+00-2.00000E+00 2.00000E+00
 -1        82 1.00000E+00 0.00000E+00-3.00000E+00
 -1        83 2.00000E+00-1.00000E+00-2.00000E+00
 -1        84 1.00000E+00-1.00000E+00 0.00000E+00
 -1        85 2.00000E+00-1.00000E+00-1.00000E+00
 -1        86 1.00000E+00-1.00000E+00 1.00000E+00
 -1        87 1.00000E+00-1.00000E+00 2.00000E+00
 -1        88 1.00000E+00-1.00000E+00 3.00000E+00
 -1        89 1.00000E+00 1.00000E+00-3.00000E+00
 -1        90 1.00000E+00 1.00000E+00-2.00000E+00
 -1        91 1.00000E+00 0.00000E+00-1.00000E+00
 -1        92 1.00000E+00 0.00000E+00 1.00000E+00
 -1        93 1.00000E+00 0.00000E+00 3.00000E+00
 -1        94 1.00000E+00 1.00000E+00-1.00000E+00
 -1        95 1.00000E+00 1.00000E+00 0.00000E+00
 -1        96 2.00000E+00 1.00000E+00 1.00000E+00
 -1        97 2.00000E+00 1.00000E+00 2.00000E+00
 -1        98 1.00000E+00 2.00000E+00-2.00000E+00
 -1        99 1.00000E+00 3.00000E+00-1.00000E+00
 -1       100 1.00000E+00 2.00000E+00-1.00000E+00
 -1       101 1.00000E+00 3.00000E+00 0.00000E+00
 -1       102 2.00000E+00 2.00000E+00 1.00000E+00
 -1       103 2.00000E+00-2.00000E+00 1.00000E+00
 -1       104 3.00000E+00-1.00000E+00 0.00000E+00
 -1       105 3.00000E+00-1.00000E+00-1.00000E+00
 -1       106 3.00000E+00-1.00000E+00 1.00000E+00
 -1       107 2.00000E+00-1.00000E+00 1.00000E+00
 -1       108 2.00000E+00-1.00000E+00 2.00000E+00
 -1       109 2.00000E+00 1.00000E+00-2.00000E+00
 -1       110 3.00000E+00 0.00000E+00-1.00000E+00
 -1       111 3.00000E+00 0.00000E+00 1.00000E+00
 -1       112 3.00000E+00 1.00000E+00-1.00000E+00
 -1       113 2.00000E+00 1.00000E+00-1.00000E+00
 -1       114 3.00000E+00 1.00000E+00 0.00000E+00
 -1       115 3.00000E+00 1.00000E+00 1.00000E+00
 -1       116 2.00000E+00 2.00000E+00-1.00000E+00
 -3
    3C                            75                                     1
 -1         1    5    0    1
 -2        99        94       112        74        69       115       100       113       116       101
 -2        95       114        75        96       102
 -1         2    3    0    1
 -2        73        53        51        52
 -1         3    4    0    1
 -2        44        36        33        42        69        86        63        94        37        34
 -2        35        43        68        64        62        67        92        84        91        95
 -1         4    1    0    1
 -2        51        73        68        43        72       101        95        67
 -1         5    6    0    1
 -2       115        74        69        71       102        75        96        97        76        70
 -1         6    2    0    1
 -2        52        51        73        44        43        68
 -1         7    2    0    1
 -2        75        73       101        69        68        95
 -1         8    2    0    1
 -2       100       101        72        94        95        67
 -1         9    2    0    1
 -2        48        72        51        42        67        43
 -1        10    3    0    1
 -2       101        74        73        75
 -1        11    3    0    1
 -2        72        99       101       100
 -1        12    3    0    1
 -2        51        49        72        48
 -1        13    5    0    1
 -2        49        42        40        99        94        89        48        41        50        72
 -2        67        66       100        90        98
 -1        14    5    0    1
 -2        53        44         8        49        42         6        52        18        22        51
 -2        43         7        48        17        21
 -1        15    5    0    1
 -2        74        69        71        53        44        20        75        70        76        73
 -2        68        47        52        46        54
 -1        16    6    0    1
 -2        89        99        94       112        98       100        90       109       116       113
 -1        17    6    0    1
 -2         6        49        42        40        21        48        17        16        50        41
 -1        18    6    0    1
 -2        20        53        44         8        54        52        46        19        22        18
 -1        19    3    0    1
 -2        65        39        45        38
 -1        20    3    0    1
 -2        55        23        24        28
 -1        21    3    0    1
 -2        66        40        31        41
 -1        22    1    0    1
 -2        45        65        64        37        47        93        92        68
 -1        23    1    0    1
 -2        24        55        62        34        57        77        84        64
 -1        24    1    0    1
 -2        31        66        67        35        32        82        91        62
 -1        25    2    0    1
 -2        87        65        93        86        64        92
 -1        26    2    0    1
 -2        59        55        77        63        62        84
 -1        27    2    0    1
 -2        90        66        82        94        67        91
 -1        28    2    0    1
 -2        46        47        45        44        68        37
 -1        29    2    0    1
 -2        29        57        24        36        64        34
 -1        30    2    0    1
 -2        26        32        31        33        62        35
 -1        31    3    0    1
 -2        93        88        65        87
 -1        32    3    0    1
 -2        77        56        55        59
 -1        33    3    0    1
 -2        82        89        66        90
 -1        34    3    0    1
 -2        45        20        47        46
 -1        35    3    0    1
 -2        24        25        57        29
 -1        36    3    0    1
 -2        31        13        32        26
 -1        37    2    0    1
 -2        38        45        65        36        37        64
 -1        38    2    0    1
 -2        28        24        55        33        34        62
 -1        39    2    0    1
 -2        41        31        66        42        35        67
 -1        40    2    0    1
 -2        70        93        47        69        92        68
 -1        41    2    0    1
 -2        80        77        57        86        84        64
 -1        42    2    0    1
 -2        61        82        32        63        91        62
 -1        43    3    0    1
 -2        47        71        93        70
 -1        44    3    0    1
 -2        57        78        77        80
 -1        45    3    0    1
 -2        32        60        82        61
 -1        46    5    0    1
 -2        56        63        60        23        33        13        59        61        58        55
 -2        62        32        28        26        27
 -1        47    5    0    1
 -2        25        36        39        78        86        88        29        38        30        57
 -2        64        65        80        87        81
 -1        48    3    0    1
 -2         7         8         5        18
 -1        49    1    0    1
 -2         5         7        43        37         1         4        35        34
 -1        50    2    0    1
 -2        17         7         4        42        43        35
 -1        51    2    0    1
 -2        11         1         5        36        34        37
 -1        52    3    0    1
 -2         4         6         7        17
 -1        53    3    0    1
 -2         5         3         1        11
 -1        54    2    0    1
 -2        14         4         1        33        35        34
 -1        55    3    0    1
 -2         1         2         4        14
 -1        56    1    0    1
 -2       111       104        84        92       114       110        91        95
 -1        57    2    0    1
 -2        85       104       110        63        84        91
 -1        58    2    0    1
 -2        96       114       111        69        95        92
 -1        59    3    0    1
 -2       110       105       104        85
 -1        60    3    0    1
 -2       111       115       114        96
 -1        61    3    0    1
 -2       114       112       110       113
 -1        62    2    0    1
 -2       113       110       114        94        91        95
 -1        63    2    0    1
 -2        18         5         7        44        37        43
 -1        64    3    0    1
 -2       104       106       111       107
 -1        65    2    0    1
 -2       107       111       104        86        92        84
 -1        66    5    0    1
 -2        71        69       115        88        86       106        70        96        97        93
 -2        92       111        87       107       108
 -1        67    5    0    1
 -2        78        86       106        56        63       105        80       107       103        77
 -2        84       104        59        85        79
 -1        68    5    0    1
 -2        60        63       105        89        94       112        61        85        83        82
 -2        91       110        90       113       109
 -1        69    5    0    1
 -2        39        36         3        20        44         8        38        11        15        45
 -2        37         5        46        18        19
 -1        70    5    0    1
 -2        23        33         2        25        36         3        28        14        10        24
 -2        34         1        29        11        12
 -1        71    5    0    1
 -2        40        42         6        13        33         2        41        17        16        31
 -2        35         4        26        14         9
 -1        72    6    0    1
 -2        88        78        86       106        81        80        87       108       103       107
 -1        73    6    0    1
 -2         3        25        36        39        12        29        11        15        30        38
 -1        74    6    0    1
 -2        13        23        33         2        27        28        26         9        10        14
 -1        75    6    0    1
 -2       105        56        63        60        79        59        85        83        58        61
 -3
    1PSTEP                         1           1           1          
  100CL  101 1.000000000         116                     0    1           1
 -4  DISP        4    1
 -5  D1          1    2    1    0
 -5  D2          1    2    2    0
 -5  D3          1    2    3    0
 -5  ALL         1    2    0    0    1ALL
 -1         1 0.00000E+00-3.10313E-04-3.11061E-19
 -1         2 0.00000E+00-3.36510E-04-3.13782E-04
 -1         3 0.00000E+00-3.36510E-04 3.13782E-04
 -1         4 0.00000E+00 2.83262E-19-2.90072E-04
 -1         5 0.00000E+00 8.61915E-20 2.90072E-04
 -1         6 0.00000E+00 3.36510E-04-3.13782E-04
 -1         7 0.00000E+00 3.10313E-04-1.88339E-19
 -1         8 0.00000E+00 3.36510E-04 3.13782E-04
 -1         9-7.79361E-04-3.49408E-04-5.03653E-04
 -1        10-7.00620E-04-5.62682E-04-2.78156E-04
 -1        11-4.09123E-04-3.17528E-04 2.71962E-04
 -1        12-7.00620E-04-5.62682E-04 2.78156E-04
 -1        13-6.36864E-04-6.14188E-04 0.00000E+00
 -1        14-4.09123E-04-3.17528E-04-2.71962E-04
 -1        15-7.79361E-04-3.49408E-04 5.03653E-04
 -1        16-7.79361E-04 3.49408E-04-5.03653E-04
 -1        17-4.09123E-04 3.17528E-04-2.71962E-04
 -1        18-4.09123E-04 3.17528E-04 2.71962E-04
 -1        19-7.79361E-04 3.49408E-04 5.03653E-04
 -1        20-6.36864E-04 6.14188E-04 0.00000E+00
 -1        21-7.00620E-04 5.62682E-04-2.78156E-04
 -1        22-7.00620E-04 5.62682E-04 2.78156E-04
 -1        23-4.97843E-04 0.00000E+00-4.52503E-04
 -1        24-4.37890E-04 0.00000E+00-5.21617E-19
 -1        25-4.97843E-04 0.00000E+00 4.52503E-04
 -1        26-4.56878E-04-4.10994E-04-2.88900E-04
 -1        27-4.20846E-04-7.19890E-04-5.82241E-04
 -1        28-4.10120E-04-3.48702E-04-3.18745E-04
 -1        29-4.10120E-04-3.48702E-04 3.18745E-04
 -1        30-4.20846E-04-7.19890E-04 5.82241E-04
 -1        31-5.45377E-04 5.62319E-20 0.00000E+00
 -1        32 2.11837E-19-5.25064E-04 0.00000E+00
 -1        33-3.67409E-04-3.05054E-04-2.43107E-04
 -1        34-3.11363E-04-2.40134E-04-3.04353E-19
 -1        35-3.38021E-04 1.08275E-19-1.96048E-04
 -1        36-3.67409E-04-3.05054E-04 2.43107E-04
 -1        37-3.38021E-04 8.56615E-21 1.96048E-04
 -1        38-4.56878E-04-4.10994E-04 2.88900E-04
 -1        39-6.36864E-04-6.14188E-04 0.00000E+00
 -1        40-6.36864E-04 6.14188E-04 0.00000E+00
 -1        41-4.56878E-04 4.10994E-04-2.88900E-04
 -1        42-3.67409E-04 3.05054E-04-2.43107E-04
 -1        43-3.11363E-04 2.40134E-04 7.46009E-20
 -1        44-3.67409E-04 3.05054E-04 2.43107E-04
 -1        45-5.45377E-04 1.49593E-19 0.00000E+00
 -1        46-4.56878E-04 4.10994E-04 2.88900E-04
 -1        47-3.09468E-20 5.25064E-04 0.00000E+00
 -1        48-4.10120E-04 3.48702E-04-3.18745E-04
 -1        49-4.97843E-04 0.00000E+00-4.52503E-04
 -1        50-4.20846E-04 7.19890E-04-5.82241E-04
 -1        51-4.37890E-04 0.00000E+00 3.10474E-19
 -1        52-4.10120E-04 3.48702E-04 3.18745E-04
 -1        53-4.97843E-04 0.00000E+00 4.52503E-04
 -1        54-4.20846E-04 7.19890E-04 5.82241E-04
 -1        55 1.24730E-19 0.00000E+00-3.97417E-04
 -1        56 4.97843E-04 0.00000E+00-4.52503E-04
 -1        57-3.87129E-19 0.00000E+00 3.97417E-04
 -1        58 4.20846E-04-7.19890E-04-5.82241E-04
 -1        59 4.10120E-04-3.48702E-04-3.18745E-04
 -1        60 6.36864E-04-6.14188E-04 0.00000E+00
 -1        61 4.56878E-04-4.10994E-04-2.88900E-04
 -1        62 1.27694E-19-2.93503E-04-2.22815E-04
 -1        63 3.67409E-04-3.05054E-04-2.43107E-04
 -1        64-1.75265E-19-2.93503E-04 2.22815E-04
 -1        65-1.74839E-19-5.25064E-04 0.00000E+00
 -1        66 9.09000E-20 5.25064E-04 0.00000E+00
 -1        67-4.30615E-20 2.93503E-04-2.22815E-04
 -1        68 1.61984E-19 2.93503E-04 2.22815E-04
 -1        69 3.67409E-04 3.05054E-04 2.43107E-04
 -1        70 4.56878E-04 4.10994E-04 2.88900E-04
 -1        71 6.36864E-04 6.14188E-04 0.00000E+00
 -1        72-4.14881E-20 0.00000E+00-3.97417E-04
 -1        73 3.51813E-19 0.00000E+00 3.97417E-04
 -1        74 4.97843E-04 0.00000E+00 4.52503E-04
 -1        75 4.10120E-04 3.48702E-04 3.18745E-04
 -1        76 4.20846E-04 7.19890E-04 5.82241E-04
 -1        77 4.37890E-04 0.00000E+00 6.94610E-20
 -1        78 4.97843E-04 0.00000E+00 4.52503E-04
 -1        79 7.00620E-04-5.62682E-04-2.78156E-04
 -1        80 4.10120E-04-3.48702E-04 3.18745E-04
 -1        81 4.20846E-04-7.19890E-04 5.82241E-04
 -1        82 5.45377E-04 3.22922E-19 0.00000E+00
 -1        83 7.79361E-04-3.49408E-04-5.03653E-04
 -1        84 3.11363E-04-2.40134E-04-1.21235E-20
 -1        85 4.09123E-04-3.17528E-04-2.71962E-04
 -1        86 3.67409E-04-3.05054E-04 2.43107E-04
 -1        87 4.56878E-04-4.10994E-04 2.88900E-04
 -1        88 6.36864E-04-6.14188E-04 0.00000E+00
 -1        89 6.36864E-04 6.14188E-04 0.00000E+00
 -1        90 4.56878E-04 4.10994E-04-2.88900E-04
 -1        91 3.38021E-04 7.00808E-21-1.96048E-04
 -1        92 3.38021E-04-2.63297E-20 1.96048E-04
 -1        93 5.45377E-04-3.27184E-19 0.00000E+00
 -1        94 3.67409E-04 3.05054E-04-2.43107E-04
 -1        95 3.11363E-04 2.40134E-04-1.11231E-19
 -1        96 4.09123E-04 3.17528E-04 2.71962E-04
 -1        97 7.79361E-04 3.49408E-04 5.03653E-04
 -1        98 4.20846E-04 7.19890E-04-5.82241E-04
 -1        99 4.97843E-04 0.00000E+00-4.52503E-04
 -1       100 4.10120E-04 3.48702E-04-3.18745E-04
 -1       101 4.37890E-04 0.00000E+00-2.01856E-19
 -1       102 7.00620E-04 5.62682E-04 2.78156E-04
 -1       103 7.00620E-04-5.62682E-04 2.78156E-04
 -1       104 0.00000E+00-3.10313E-04-3.58093E-21
 -1       105 0.00000E+00-3.36510E-04-3.13782E-04
 -1       106 0.00000E+00-3.36510E-04 3.13782E-04
 -1       107 4.09123E-04-3.17528E-04 2.71962E-04
 -1       108 7.79361E-04-3.49408E-04 5.03653E-04
 -1       109 7.79361E-04 3.49408E-04-5.03653E-04
 -1       110 0.00000E+00-1.24324E-20-2.90072E-04
 -1       111 0.00000E+00-9.01379E-20 2.90072E-04
 -1       112 0.00000E+00 3.36510E-04-3.13782E-04
 -1       113 4.09123E-04 3.17528E-04-2.71962E-04
 -1       114 0.00000E+00 3.10313E-04-4.57440E-20
 -1       115 0.00000E+00 3.36510E-04 3.13782E-04
 -1       116 7.00620E-04 5.62682E-04-2.78156E-04
 -3
    1PSTEP                         2           1           1          
  100CL  101 1.000000000         116                     0    1           1
 -4  NDTEMP      1    1
 -5  T           1    1    0    0
 -1         1 1.00000E+01
 -1         2 1.00000E+01
 -1         3 1.00000E+01
 -1         4 1.00000E+01
 -1         5 1.00000E+01
 -1         6 1.00000E+01
 -1         7 1.00000E+01
 -1         8 1.00000E+01
 -1         9 2.00060E+01
 -1        10 1.84288E+01
 -1        11 1.69157E+01
 -1        12 1.84288E+01
 -1        13 3.00000E+01
 -1        14 1.69157E+01
 -1        15 2.00060E+01
 -1        16 2.00060E+01
 -1        17 1.69157E+01
 -1        18 1.69157E+01
 -1        19 2.00060E+01
 -1        20 3.00000E+01
 -1        21 1.84288E+01
 -1        22 1.84288E+01
 -1        23 2.00000E+01
 -1        24 2.00000E+01
 -1        25 2.00000E+01
 -1        26 2.30956E+01
 -1        27 2.15815E+01
 -1        28 2.00048E+01
 -1        29 2.00048E+01
 -1        30 2.15815E+01
 -1        31 3.00000E+01
 -1        32 3.00000E+01
 -1        33 2.00068E+01
 -1        34 1.92441E+01
 -1        35 2.00074E+01
 -1        36 2.00068E+01
 -1        37 2.00074E+01
 -1        38 2.30956E+01
 -1        39 3.00000E+01
 -1        40 3.00000E+01
 -1        41 2.30956E+01
 -1        42 2.00068E+01
 -1        43 1.92441E+01
 -1        44 2.00068E+01
 -1        45 3.00000E+01
 -1        46 2.30956E+01
 -1        47 3.00000E+01
 -1        48 2.00048E+01
 -1        49 2.00000E+01
 -1        50 2.15815E+01
 -1        51 2.00000E+01
 -1        52 2.00048E+01
 -1        53 2.00000E+01
 -1        54 2.15815E+01
 -1        55 2.00000E+01
 -1        56 2.00000E+01
 -1        57 2.00000E+01
 -1        58 2.15815E+01
 -1        59 2.00048E+01
 -1        60 3.00000E+01
 -1        61 2.30956E+01
 -1        62 2.07687E+01
 -1        63 2.00068E+01
 -1        64 2.07687E+01
 -1        65 3.00000E+01
 -1        66 3.00000E+01
 -1        67 2.07687E+01
 -1        68 2.07687E+01
 -1        69 2.00068E+01
 -1        70 2.30956E+01
 -1        71 3.00000E+01
 -1        72 2.00000E+01
 -1        73 2.00000E+01
 -1        74 2.00000E+01
 -1        75 2.00048E+01
 -1        76 2.15815E+01
 -1        77 2.00000E+01
 -1        78 2.00000E+01
 -1        79 1.84288E+01
 -1        80 2.00048E+01
 -1        81 2.15815E+01
 -1        82 3.00000E+01
 -1        83 2.00060E+01
 -1        84 1.92441E+01
 -1        85 1.69157E+01
 -1        86 2.00068E+01
 -1        87 2.30956E+01
 -1        88 3.00000E+01
 -1        89 3.00000E+01
 -1        90 2.30956E+01
 -1        91 2.00074E+01
 -1        92 2.00074E+01
 -1        93 3.00000E+01
 -1        94 2.00068E+01
 -1        95 1.92441E+01
 -1        96 1.69157E+01
 -1        97 2.00060E+01
 -1        98 2.15815E+01
 -1        99 2.00000E+01
 -1       100 2.00048E+01
 -1       101 2.00000E+01
 -1       102 1.84288E+01
 -1       103 1.84288E+01
 -1       104 1.00000E+01
 -1       105 1.00000E+01
 -1       106 1.00000E+01
 -1       107 1.69157E+01
 -1       108 2.00060E+01
 -1       109 2.00060E+01
 -1       110 1.00000E+01
 -1       111 1.00000E+01
 -1       112 1.00000E+01
 -1       113 1.69157E+01
 -1       114 1.00000E+01
 -1       115 1.00000E+01
 -1       116 1.84288E+01
 -3
    1PSTEP                         3           1           1          
  100CL  101 1.000000000         116                     0    1           1
 -4  STRESS      6    1
 -5  SXX         1    4    1    1
 -5  SYY         1    4    2    2
 -5  SZZ         1    4    3    3
 -5  SXY         1    4    1    2
 -5  SYZ         1    4    2    3
 -5  SZX         1    4    3    1
 -1         1-1.16231E+02-1.27158E+01-2.70990E+01 1.22317E+01-7.65720E-01 2.16835E+00
 -1         2-1.44967E+02 1.32983E+01 7.28774E+00 2.13282E+01-4.07517E+00 2.61401E+01
 -1         3-1.44967E+02 1.32983E+01 7.28774E+00 2.13282E+01 4.07517E+00-2.61401E+01
 -1         4-1.15831E+02-2.16359E+01-1.75290E+01-2.41799E+00 7.65720E-01 1.46515E+01
 -1         5-1.15831E+02-2.16359E+01-1.75290E+01 2.41799E+00 7.65720E-01-1.46515E+01
 -1         6-1.44967E+02 1.32983E+01 7.28774E+00-2.13282E+01 4.07517E+00 2.61401E+01
 -1         7-1.16231E+02-1.27158E+01-2.70990E+01-1.22317E+01-7.65720E-01-2.16835E+00
 -1         8-1.44967E+02 1.32983E+01 7.28774E+00-2.13282E+01-4.07517E+00-2.61401E+01
 -1         9-6.26968E+01 4.96773E+00-6.71338E+01 6.22030E+00 1.42802E+01 4.75248E+01
 -1        10-5.62021E+01-5.84301E+01 3.08512E+00 4.04403E+01 1.30185E+01 8.97558E+00
 -1        11-9.40948E+01-6.48932E+00-1.21868E+01 1.37990E+01-2.61541E+00-1.69664E+01
 -1        12-5.62021E+01-5.84301E+01 3.08512E+00 4.04403E+01-1.30185E+01-8.97558E+00
 -1        13-5.38129E+00-1.13983E+01-1.73701E+02-2.13328E-01 3.55255E+01 3.07017E+01
 -1        14-9.40948E+01-6.48932E+00-1.21868E+01 1.37990E+01 2.61541E+00 1.69664E+01
 -1        15-6.26968E+01 4.96773E+00-6.71338E+01 6.22030E+00-1.42802E+01-4.75248E+01
 -1        16-6.26968E+01 4.96773E+00-6.71338E+01-6.22030E+00-1.42802E+01 4.75248E+01
 -1        17-9.40948E+01-6.48932E+00-1.21868E+01-1.37990E+01-2.61541E+00 1.69664E+01
 -1        18-9.40948E+01-6.48932E+00-1.21868E+01-1.37990E+01 2.61541E+00-1.69664E+01
 -1        19-6.26968E+01 4.96773E+00-6.71338E+01-6.22030E+00 1.42802E+01-4.75248E+01
 -1        20-5.38129E+00-1.13983E+01-1.73701E+02 2.13328E-01 3.55255E+01-3.07017E+01
 -1        21-5.62021E+01-5.84301E+01 3.08512E+00-4.04403E+01-1.30185E+01 8.97558E+00
 -1        22-5.62021E+01-5.84301E+01 3.08512E+00-4.04403E+01 1.30185E+01-8.97558E+00
 -1        23 6.95553E+00-1.59398E+02-5.07521E+00 2.36207E+01 3.32566E+01-2.15255E+00
 -1        24-1.47107E+01-1.29429E+02-3.31396E+01 1.38401E+01-1.73983E+00 9.26026E-01
 -1        25 6.95553E+00-1.59398E+02-5.07521E+00 2.36207E+01-3.32566E+01 2.15255E+00
 -1        26-2.01951E+01-2.59175E+01-1.22113E+02 1.41764E+00 2.21127E+01 1.89369E+01
 -1        27 6.86896E+00-7.14282E+01-7.36388E+01 7.48918E+00 5.46387E+01 1.15076E+01
 -1        28-1.04892E+01-1.08174E+02-2.19110E+01 1.47894E+01 2.11337E+01 2.01244E+00
 -1        29-1.04892E+01-1.08174E+02-2.19110E+01 1.47894E+01-2.11337E+01-2.01244E+00
 -1        30 6.86896E+00-7.14282E+01-7.36388E+01 7.48918E+00-5.46387E+01-1.15076E+01
 -1        31-2.14928E+01-3.36853E+01-1.42037E+02-1.09026E+00 1.55864E+00 1.78590E+01
 -1        32-2.82144E+01-2.63165E+01-1.41642E+02 1.09026E+00 2.02897E+01-1.80949E+00
 -1        33-3.90849E+01-4.48674E+01-5.05985E+01 4.17621E+00 1.03876E+01 7.27599E+00
 -1        34-5.93941E+01-6.42315E+01-4.56511E+01 7.72743E+00 1.87917E+00-2.32078E+00
 -1        35-6.38432E+01-4.25813E+01-7.34499E+01 2.63119E+00-1.74327E+00 1.04015E+01
 -1        36-3.90849E+01-4.48674E+01-5.05985E+01 4.17621E+00-1.03876E+01-7.27599E+00
 -1        37-6.38432E+01-4.25813E+01-7.34499E+01-2.63119E+00-1.74327E+00-1.04015E+01
 -1        38-2.01951E+01-2.59175E+01-1.22113E+02 1.41764E+00-2.21127E+01-1.89369E+01
 -1        39-5.38129E+00-1.13983E+01-1.73701E+02-2.13328E-01-3.55255E+01-3.07017E+01
 -1        40-5.38129E+00-1.13983E+01-1.73701E+02 2.13328E-01-3.55255E+01 3.07017E+01
 -1        41-2.01951E+01-2.59175E+01-1.22113E+02-1.41764E+00-2.21127E+01 1.89369E+01
 -1        42-3.90849E+01-4.48674E+01-5.05985E+01-4.17621E+00-1.03876E+01 7.27599E+00
 -1        43-5.93941E+01-6.42315E+01-4.56511E+01-7.72743E+00 1.87917E+00 2.32078E+00
 -1        44-3.90849E+01-4.48674E+01-5.05985E+01-4.17621E+00 1.03876E+01-7.27599E+00
 -1        45-2.14928E+01-3.36853E+01-1.42037E+02 1.09026E+00 1.55864E+00-1.78590E+01
 -1        46-2.01951E+01-2.59175E+01-1.22113E+02-1.41764E+00 2.21127E+01-1.89369E+01
 -1        47-2.82144E+01-2.63165E+01-1.41642E+02-1.09026E+00 2.02897E+01 1.80949E+00
 -1        48-1.04892E+01-1.08174E+02-2.19110E+01-1.47894E+01-2.11337E+01 2.01244E+00
 -1        49 6.95553E+00-1.59398E+02-5.07521E+00-2.36207E+01-3.32566E+01-2.15255E+00
 -1        50 6.86896E+00-7.14282E+01-7.36388E+01-7.48918E+00-5.46387E+01 1.15076E+01
 -1        51-1.47107E+01-1.29429E+02-3.31396E+01-1.38401E+01-1.73983E+00-9.26026E-01
 -1        52-1.04892E+01-1.08174E+02-2.19110E+01-1.47894E+01 2.11337E+01-2.01244E+00
 -1        53 6.95553E+00-1.59398E+02-5.07521E+00-2.36207E+01 3.32566E+01 2.15255E+00
 -1        54 6.86896E+00-7.14282E+01-7.36388E+01-7.48918E+00 5.46387E+01-1.15076E+01
 -1        55-2.22035E+01-1.28634E+02-2.43475E+01 2.23962E+00 1.86927E+01-9.26026E-01
 -1        56 6.95553E+00-1.59398E+02-5.07521E+00-2.36207E+01 3.32566E+01 2.15255E+00
 -1        57-2.22035E+01-1.28634E+02-2.43475E+01-2.23962E+00-1.86927E+01-9.26026E-01
 -1        58 6.86896E+00-7.14282E+01-7.36388E+01-7.48918E+00 5.46387E+01-1.15076E+01
 -1        59-1.04892E+01-1.08174E+02-2.19110E+01-1.47894E+01 2.11337E+01-2.01244E+00
 -1        60-5.38129E+00-1.13983E+01-1.73701E+02 2.13328E-01 3.55255E+01-3.07017E+01
 -1        61-2.01951E+01-2.59175E+01-1.22113E+02-1.41764E+00 2.21127E+01-1.89369E+01
 -1        62-3.94593E+01-7.31269E+01-7.78963E+01-2.49741E+00 1.30856E+01 2.05164E+00
 -1        63-3.90849E+01-4.48674E+01-5.05985E+01-4.17621E+00 1.03876E+01-7.27599E+00
 -1        64-3.94593E+01-7.31269E+01-7.78963E+01 2.49741E+00-1.30856E+01 2.05164E+00
 -1        65-2.82144E+01-2.63165E+01-1.41642E+02-1.09026E+00-2.02897E+01-1.80949E+00
 -1        66-2.82144E+01-2.63165E+01-1.41642E+02 1.09026E+00-2.02897E+01 1.80949E+00
 -1        67-3.94593E+01-7.31269E+01-7.78963E+01-2.49741E+00-1.30856E+01-2.05164E+00
 -1        68-3.94593E+01-7.31269E+01-7.78963E+01 2.49741E+00 1.30856E+01-2.05164E+00
 -1        69-3.90849E+01-4.48674E+01-5.05985E+01 4.17621E+00 1.03876E+01 7.27599E+00
 -1        70-2.01951E+01-2.59175E+01-1.22113E+02 1.41764E+00 2.21127E+01 1.89369E+01
 -1        71-5.38129E+00-1.13983E+01-1.73701E+02-2.13328E-01 3.55255E+01 3.07017E+01
 -1        72-2.22035E+01-1.28634E+02-2.43475E+01 2.23962E+00-1.86927E+01 9.26026E-01
 -1        73-2.22035E+01-1.28634E+02-2.43475E+01-2.23962E+00 1.86927E+01 9.26026E-01
 -1        74 6.95553E+00-1.59398E+02-5.07521E+00 2.36207E+01 3.32566E+01-2.15255E+00
 -1        75-1.04892E+01-1.08174E+02-2.19110E+01 1.47894E+01 2.11337E+01 2.01244E+00
 -1        76 6.86896E+00-7.14282E+01-7.36388E+01 7.48918E+00 5.46387E+01 1.15076E+01
 -1        77-1.47107E+01-1.29429E+02-3.31396E+01-1.38401E+01 1.73983E+00 9.26026E-01
 -1        78 6.95553E+00-1.59398E+02-5.07521E+00-2.36207E+01-3.32566E+01-2.15255E+00
 -1        79-5.62021E+01-5.84301E+01 3.08512E+00-4.04403E+01 1.30185E+01-8.97558E+00
 -1        80-1.04892E+01-1.08174E+02-2.19110E+01-1.47894E+01-2.11337E+01 2.01244E+00
 -1        81 6.86896E+00-7.14282E+01-7.36388E+01-7.48918E+00-5.46387E+01 1.15076E+01
 -1        82-2.14928E+01-3.36853E+01-1.42037E+02-1.09026E+00-1.55864E+00-1.78590E+01
 -1        83-6.26968E+01 4.96773E+00-6.71338E+01-6.22030E+00 1.42802E+01-4.75248E+01
 -1        84-5.93941E+01-6.42315E+01-4.56511E+01-7.72743E+00-1.87917E+00-2.32078E+00
 -1        85-9.40948E+01-6.48932E+00-1.21868E+01-1.37990E+01 2.61541E+00-1.69664E+01
 -1        86-3.90849E+01-4.48674E+01-5.05985E+01-4.17621E+00-1.03876E+01 7.27599E+00
 -1        87-2.01951E+01-2.59175E+01-1.22113E+02-1.41764E+00-2.21127E+01 1.89369E+01
 -1        88-5.38129E+00-1.13983E+01-1.73701E+02 2.13328E-01-3.55255E+01 3.07017E+01
 -1        89-5.38129E+00-1.13983E+01-1.73701E+02-2.13328E-01-3.55255E+01-3.07017E+01
 -1        90-2.01951E+01-2.59175E+01-1.22113E+02 1.41764E+00-2.21127E+01-1.89369E+01
 -1        91-6.38432E+01-4.25813E+01-7.34499E+01 2.63119E+00 1.74327E+00-1.04015E+01
 -1        92-6.38432E+01-4.25813E+01-7.34499E+01-2.63119E+00 1.74327E+00 1.04015E+01
 -1        93-2.14928E+01-3.36853E+01-1.42037E+02 1.09026E+00-1.55864E+00 1.78590E+01
 -1        94-3.90849E+01-4.48674E+01-5.05985E+01 4.17621E+00-1.03876E+01-7.27599E+00
 -1        95-5.93941E+01-6.42315E+01-4.56511E+01 7.72743E+00-1.87917E+00 2.32078E+00
 -1        96-9.40948E+01-6.48932E+00-1.21868E+01 1.37990E+01 2.61541E+00 1.69664E+01
 -1        97-6.26968E+01 4.96773E+00-6.71338E+01 6.22030E+00 1.42802E+01 4.75248E+01
 -1        98 6.86896E+00-7.14282E+01-7.36388E+01 7.48918E+00-5.46387E+01-1.15076E+01
 -1        99 6.95553E+00-1.59398E+02-5.07521E+00 2.36207E+01-3.32566E+01 2.15255E+00
 -1       100-1.04892E+01-1.08174E+02-2.19110E+01 1.47894E+01-2.11337E+01-2.01244E+00
 -1       101-1.47107E+01-1.29429E+02-3.31396E+01 1.38401E+01 1.73983E+00-9.26026E-01
 -1       102-5.62021E+01-5.84301E+01 3.08512E+00 4.04403E+01 1.30185E+01 8.97558E+00
 -1       103-5.62021E+01-5.84301E+01 3.08512E+00-4.04403E+01-1.30185E+01 8.97558E+00
 -1       104-1.16231E+02-1.27158E+01-2.70990E+01-1.22317E+01 7.65720E-01 2.16835E+00
 -1       105-1.44967E+02 1.32983E+01 7.28774E+00-2.13282E+01-4.07517E+00-2.61401E+01
 -1       106-1.44967E+02 1.32983E+01 7.28774E+00-2.13282E+01 4.07517E+00 2.61401E+01
 -1       107-9.40948E+01-6.48932E+00-1.21868E+01-1.37990E+01-2.61541E+00 1.69664E+01
 -1       108-6.26968E+01 4.96773E+00-6.71338E+01-6.22030E+00-1.42802E+01 4.75248E+01
 -1       109-6.26968E+01 4.96773E+00-6.71338E+01 6.22030E+00-1.42802E+01-4.75248E+01
 -1       110-1.15831E+02-2.16359E+01-1.75290E+01-2.41799E+00-7.65720E-01-1.46515E+01
 -1       111-1.15831E+02-2.16359E+01-1.75290E+01 2.41799E+00-7.65720E-01 1.46515E+01
 -1       112-1.44967E+02 1.32983E+01 7.28774E+00 2.13282E+01 4.07517E+00-2.61401E+01
 -1       113-9.40948E+01-6.48932E+00-1.21868E+01 1.37990E+01-2.61541E+00-1.69664E+01
 -1       114-1.16231E+02-1.27158E+01-2.70990E+01 1.22317E+01 7.65720E-01-2.16835E+00
 -1       115-1.44967E+02 1.32983E+01 7.28774E+00 2.13282E+01-4.07517E+00 2.61401E+01
 -1       116-5.62021E+01-5.84301E+01 3.08512E+00 4.04403E+01-1.30185E+01-8.97558E+00
 -3
    1PSTEP                         4           1           1          
  100CL  101 1.000000000         116                     0    1           1
 -4  ERROR       1    1
 -5  STR(%)      1    1    0    0
 -1         1 2.68012E+01
 -1         2 2.68012E+01
 -1         3 2.68012E+01
 -1         4 2.68012E+01
 -1         5 2.68012E+01
 -1         6 2.68012E+01
 -1         7 2.68012E+01
 -1         8 2.68012E+01
 -1         9 2.64477E+01
 -1        10 2.68012E+01
 -1        11 2.68012E+01
 -1        12 2.68012E+01
 -1        13 2.60941E+01
 -1        14 2.68012E+01
 -1        15 2.64477E+01
 -1        16 2.64477E+01
 -1        17 2.68012E+01
 -1        18 2.68012E+01
 -1        19 2.64477E+01
 -1        20 2.60941E+01
 -1        21 2.68012E+01
 -1        22 2.68012E+01
 -1        23 2.68012E+01
 -1        24 2.68012E+01
 -1        25 2.68012E+01
 -1        26 2.64477E+01
 -1        27 2.64477E+01
 -1        28 2.68012E+01
 -1        29 2.68012E+01
 -1        30 2.64477E+01
 -1        31 2.60941E+01
 -1        32 2.60941E+01
 -1        33 2.68012E+01
 -1        34 2.68012E+01
 -1        35 2.68012E+01
 -1        36 2.68012E+01
 -1        37 2.68012E+01
 -1        38 2.64477E+01
 -1        39 2.60941E+01
 -1        40 2.60941E+01
 -1        41 2.64477E+01
 -1        42 2.68012E+01
 -1        43 2.68012E+01
 -1        44 2.68012E+01
 -1        45 2.60941E+01
 -1        46 2.64477E+01
 -1        47 2.60941E+01
 -1        48 2.68012E+01
 -1        49 2.68012E+01
 -1        50 2.64477E+01
 -1        51 2.68012E+01
 -1        52 2.68012E+01
 -1        53 2.68012E+01
 -1        54 2.64477E+01
 -1        55 2.68012E+01
 -1        56 2.68012E+01
 -1        57 2.68012E+01
 -1        58 2.64477E+01
 -1        59 2.68012E+01
 -1        60 2.60941E+01
 -1        61 2.64477E+01
 -1        62 2.68012E+01
 -1        63 2.68012E+01
 -1        64 2.68012E+01
 -1        65 2.60941E+01
 -1        66 2.60941E+01
 -1        67 2.68012E+01
 -1        68 2.68012E+01
 -1        69 2.68012E+01
 -1        70 2.64477E+01
 -1        71 2.60941E+01
 -1        72 2.68012E+01
 -1        73 2.68012E+01
 -1        74 2.68012E+01
 -1        75 2.68012E+01
 -1        76 2.64477E+01
 -1        77 2.68012E+01
 -1        78 2.68012E+01
 -1        79 2.68012E+01
 -1        80 2.68012E+01
 -1        81 2.64477E+01
 -1        82 2.60941E+01
 -1        83 2.64477E+01
 -1        84 2.68012E+01
 -1        85 2.68012E+01
 -1        86 2.68012E+01
 -1        87 2.64477E+01
 -1        88 2.60941E+01
 -1        89 2.60941E+01
 -1        90 2.64477E+01
 -1        91 2.68012E+01
 -1        92 2.68012E+01
 -1        93 2.60941E+01
 -1        94 2.68012E+01
 -1        95 2.68012E+01
 -1        96 2.68012E+01
 -1        97 2.64477E+01
 -1        98 2.64477E+01
 -1        99 2.68012E+01
 -1       100 2.68012E+01
 -1       101 2.68012E+01
 -1       102 2.68012E+01
 -1       103 2.68012E+01
 -1       104 2.68012E+01
 -1       105 2.68012E+01
 -1       106 2.68012E+01
 -1       107 2.68012E+01
 -1       108 2.64477E+01
 -1       109 2.64477E+01
 -1       110 2.68012E+01
 -1       111 2.68012E+01
 -1       112 2.68012E+01
 -1       113 2.68012E+01
 -1       114 2.68012E+01
 -1       115 2.68012E+01
 -1       116 2.68012E+01
 -3
 9999
